350_2024/labs/lab10/exercise/p1.lp
max: Z+1.0000000000;
x0 + x1 = 1;
Z+1.0000000000  - 1.0000000000 x0 - 5.0000000000 x1 <= 0;
Z+1.0000000000  - 2.0000000000 x0 - 6.0000000000 x1 <= 0;
Z+1.0000000000  - 3.0000000000 x0 - 7.0000000000 x1 <= 0;
Z+1.0000000000  - 4.0000000000 x0 - 8.0000000000 x1 <= 0;
