350_2024/labs/lab10/exercise/p1.res

Value of objective function: 5.00000000

Actual values of the variables:
Z                               4
x0                              0
x1                              1
